Problem:    generic_fesztival
Rows:       11
Columns:    7 (7 integer, 7 binary)
Non-zeros:  37
Status:     INTEGER OPTIMAL
Objective:  TotalFestivals = 3 (MINimum)

   No.   Row name        Activity     Lower bound   Upper bound
------ ------------    ------------- ------------- -------------
     1 TotalFestivals
                                   3                             
     2 AttendConcertForEachBand[Hatijenincs]
                                   1             1               
     3 AttendConcertForEachBand[JustinBieber]
                                   2             1               
     4 AttendConcertForEachBand[TaylorSwift]
                                   1             1               
     5 AttendConcertForEachBand[Skillet]
                                   1             1               
     6 AttendConcertForEachBand[KendrickLamar]
                                   2             1               
     7 AttendConcertForEachBand[PaDuDu]
                                   1             1               
     8 AttendConcertForEachBand[Hanabie]
                                   2             1               
     9 AttendConcertForEachBand[BackstreetBoys]
                                   1             1               
    10 AttendConcertForEachBand[Metallica]
                                   1             1               
    11 AttendConcertForEachBand[Tankcsapda]
                                   3             1               

   No. Column name       Activity     Lower bound   Upper bound
------ ------------    ------------- ------------- -------------
     1 x[NOV]       *              1             0             1 
     2 x[OZO]       *              1             0             1 
     3 x[SAV]       *              0             0             1 
     4 x[BS]        *              0             0             1 
     5 x[SZI]       *              1             0             1 
     6 x[EFO]       *              0             0             1 
     7 x[SEN]       *              0             0             1 

Integer feasibility conditions:

KKT.PE: max.abs.err = 0.00e+00 on row 0
        max.rel.err = 0.00e+00 on row 0
        High quality

KKT.PB: max.abs.err = 0.00e+00 on row 0
        max.rel.err = 0.00e+00 on row 0
        High quality

End of output
